Route #1: 4 22 26 13 46 9 16
Route #2: 2 48 38 34 32 19 15 49 17 50 12 45
Route #3: 23 14 39 24 31 3 28 11 21
Route #4: 40 42 20 18 30 1
Route #5: 41 25 36 6 44 10 47 37
Route #6: 29 27 8 5 51
Route #7: 35 33 7 43
Cost 760